p wcnf 120 1300
3 -116 120 0
7 -113 117 0
4 -112 120 0
10 -111 118 0
4 -109 111 0
9 -107 -120 0
3 -107 -114 0
3 -106 -113 0
6 -105 112 0
6 -104 115 0
9 -103 -109 0
5 -103 111 0
9 -102 -104 0
6 -102 112 0
1 -100 -119 0
8 -100 102 0
8 -100 110 0
8 -100 116 0
1 -98 -114 0
10 -98 -108 0
10 -97 -115 0
2 -97 -102 0
7 -96 -102 0
6 -95 -115 0
4 -94 -109 0
4 -92 -106 0
3 -92 102 0
6 -92 110 0
2 -92 116 0
7 -92 120 0
2 -91 -117 0
5 -90 -95 0
4 -89 -114 0
4 -89 109 0
5 -89 114 0
7 -88 -91 0
3 -88 119 0
7 -87 -116 0
9 -87 93 0
9 -87 95 0
3 -87 120 0
8 -86 -116 0
3 -86 -90 0
2 -86 92 0
3 -86 98 0
4 -86 105 0
9 -85 -118 0
1 -85 -115 0
2 -85 -113 0
9 -85 -107 0
10 -85 -104 0
2 -85 90 0
1 -85 99 0
7 -85 103 0
7 -84 -116 0
4 -84 -103 0
2 -84 95 0
9 -83 -96 0
9 -83 -86 0
3 -83 105 0
7 -83 117 0
10 -82 -116 0
7 -82 -83 0
10 -82 85 0
4 -82 103 0
1 -81 -102 0
6 -81 91 0
6 -80 -99 0
7 -80 -91 0
5 -80 92 0
5 -80 98 0
9 -79 -115 0
3 -79 103 0
7 -79 108 0
2 -78 -114 0
5 -78 -109 0
10 -78 -99 0
10 -78 -90 0
6 -78 86 0
2 -78 108 0
9 -78 116 0
6 -77 112 0
2 -77 116 0
10 -76 -81 0
3 -75 96 0
8 -75 120 0
4 -74 -105 0
4 -74 -103 0
7 -74 -80 0
3 -74 108 0
6 -73 -119 0
4 -73 -117 0
3 -73 -110 0
3 -73 -100 0
3 -73 -83 0
6 -72 -119 0
3 -72 87 0
9 -72 97 0
2 -71 -114 0
10 -71 -103 0
4 -71 -77 0
6 -70 -114 0
9 -70 -89 0
6 -70 93 0
3 -70 111 0
9 -69 -120 0
1 -69 -112 0
3 -69 -106 0
9 -69 -79 0
6 -69 -78 0
4 -69 71 0
9 -69 84 0
1 -69 89 0
5 -69 109 0
8 -69 111 0
3 -68 -105 0
3 -68 -103 0
2 -68 72 0
6 -67 -96 0
9 -67 -84 0
4 -67 -83 0
1 -67 -80 0
3 -67 -77 0
6 -67 77 0
3 -67 82 0
5 -67 84 0
2 -66 -108 0
5 -66 -92 0
4 -66 67 0
3 -66 79 0
5 -65 -66 0
7 -65 87 0
8 -65 89 0
4 -65 101 0
3 -65 102 0
1 -64 79 0
3 -64 81 0
3 -64 111 0
3 -63 -96 0
2 -63 -91 0
8 -63 73 0
6 -63 81 0
10 -63 104 0
8 -62 -109 0
9 -62 -97 0
8 -62 -75 0
1 -62 -63 0
2 -62 68 0
9 -62 94 0
6 -62 108 0
1 -62 119 0
3 -61 -107 0
6 -61 -76 0
3 -61 70 0
9 -60 -105 0
8 -60 -81 0
7 -60 -78 0
10 -60 64 0
3 -60 77 0
10 -60 87 0
3 -60 94 0
7 -60 97 0
7 -60 111 0
10 -60 112 0
9 -60 115 0
9 -60 119 0
10 -59 -101 0
2 -59 -79 0
2 -59 62 0
3 -59 86 0
4 -59 106 0
8 -59 111 0
7 -58 -100 0
4 -58 65 0
6 -58 78 0
7 -58 103 0
2 -57 -89 0
6 -57 -67 0
8 -57 81 0
10 -57 82 0
2 -56 -102 0
8 -56 -67 0
3 -56 -58 0
7 -56 90 0
10 -56 97 0
2 -55 -111 0
5 -55 -78 0
7 -55 -76 0
2 -55 59 0
8 -55 61 0
7 -55 70 0
3 -55 84 0
5 -55 104 0
4 -55 115 0
3 -54 -93 0
4 -54 -78 0
2 -54 59 0
2 -54 108 0
5 -53 -110 0
3 -53 -105 0
4 -53 -94 0
8 -53 72 0
10 -53 73 0
1 -53 111 0
2 -53 114 0
6 -52 -115 0
7 -52 -111 0
2 -52 -108 0
2 -52 -106 0
5 -52 60 0
2 -52 65 0
3 -52 68 0
3 -52 91 0
5 -52 92 0
9 -51 -112 0
2 -51 -105 0
6 -51 -100 0
4 -51 -96 0
8 -51 -83 0
6 -51 -80 0
2 -51 -59 0
5 -51 65 0
8 -51 87 0
6 -51 90 0
7 -51 106 0
1 -50 -100 0
8 -50 -89 0
9 -50 -79 0
3 -50 52 0
4 -50 60 0
1 -50 81 0
6 -50 96 0
2 -50 107 0
1 -50 111 0
6 -49 -115 0
2 -49 -80 0
6 -49 75 0
3 -49 77 0
4 -49 94 0
7 -49 95 0
7 -49 97 0
5 -48 -96 0
9 -48 -90 0
8 -48 -82 0
9 -48 -61 0
8 -48 55 0
10 -48 82 0
4 -48 97 0
3 -48 102 0
8 -48 114 0
10 -47 -98 0
4 -47 -97 0
2 -47 -95 0
8 -47 -93 0
8 -47 -63 0
9 -47 49 0
8 -47 59 0
6 -47 82 0
7 -47 98 0
10 -46 -106 0
9 -46 -87 0
8 -46 61 0
5 -45 -104 0
1 -45 -98 0
8 -45 -78 0
1 -45 -56 0
3 -45 48 0
4 -45 83 0
3 -45 102 0
5 -44 -79 0
10 -44 -67 0
9 -44 -60 0
9 -44 -53 0
9 -44 62 0
7 -44 79 0
8 -43 -104 0
7 -43 -87 0
7 -43 -86 0
3 -43 48 0
9 -43 63 0
4 -43 75 0
2 -43 97 0
2 -43 118 0
6 -42 60 0
9 -42 69 0
9 -42 105 0
4 -42 112 0
8 -42 119 0
6 -41 -94 0
2 -41 -78 0
7 -41 -57 0
5 -41 52 0
8 -41 90 0
2 -41 93 0
5 -41 101 0
6 -41 106 0
3 -41 113 0
7 -40 -103 0
9 -40 -89 0
5 -40 -79 0
2 -40 -56 0
9 -40 -55 0
4 -40 99 0
1 -39 -81 0
8 -39 -64 0
1 -39 -56 0
9 -39 -49 0
5 -39 66 0
7 -39 112 0
1 -38 -119 0
4 -38 -114 0
1 -38 -59 0
3 -38 59 0
5 -38 65 0
6 -38 89 0
2 -38 108 0
4 -37 -117 0
10 -37 -109 0
8 -37 -80 0
9 -37 -40 0
1 -37 78 0
6 -37 84 0
4 -37 113 0
9 -36 -110 0
7 -36 -84 0
8 -36 -83 0
5 -36 49 0
9 -36 69 0
5 -36 72 0
4 -36 99 0
4 -35 -105 0
6 -35 -36 0
3 -35 64 0
7 -35 89 0
6 -34 -103 0
9 -34 -93 0
7 -34 -71 0
5 -34 -48 0
5 -34 41 0
4 -34 50 0
5 -34 120 0
8 -33 -90 0
5 -33 56 0
7 -33 68 0
3 -33 82 0
10 -33 84 0
8 -33 111 0
6 -33 112 0
9 -32 -119 0
6 -32 -106 0
5 -32 -104 0
10 -32 -56 0
2 -32 -48 0
8 -32 55 0
8 -32 75 0
8 -32 78 0
6 -32 101 0
3 -31 -55 0
7 -31 -42 0
1 -31 -36 0
6 -31 37 0
1 -31 50 0
6 -31 67 0
7 -31 87 0
7 -30 -104 0
2 -30 -76 0
7 -30 -53 0
4 -30 -48 0
6 -30 47 0
1 -30 59 0
7 -30 76 0
2 -30 99 0
8 -30 103 0
2 -30 117 0
8 -29 -114 0
9 -29 -60 0
2 -29 -55 0
5 -29 46 0
5 -29 68 0
1 -29 89 0
2 -28 -64 0
9 -28 -63 0
1 -28 -35 0
3 -28 36 0
8 -28 37 0
8 -28 45 0
1 -28 82 0
4 -28 96 0
1 -28 100 0
7 -28 115 0
4 -28 118 0
6 -27 -108 0
7 -27 -105 0
9 -27 -95 0
3 -27 -72 0
4 -27 -28 0
1 -27 39 0
9 -27 82 0
8 -26 -39 0
6 -26 -32 0
9 -26 -31 0
5 -26 43 0
7 -26 56 0
7 -26 102 0
6 -25 -100 0
5 -25 -87 0
7 -25 -74 0
7 -25 -65 0
9 -25 -64 0
2 -25 -49 0
8 -25 -41 0
10 -25 -30 0
1 -25 26 0
8 -25 39 0
3 -25 60 0
8 -25 80 0
6 -25 114 0
3 -24 -99 0
2 -24 -97 0
7 -24 -80 0
9 -24 -60 0
5 -24 -46 0
3 -24 33 0
7 -24 40 0
4 -24 97 0
5 -24 119 0
1 -23 -103 0
4 -23 -89 0
4 -23 -72 0
8 -23 49 0
9 -23 72 0
3 -23 107 0
3 -22 -118 0
6 -22 -50 0
10 -22 52 0
8 -22 63 0
10 -22 75 0
6 -22 92 0
5 -22 114 0
9 -22 117 0
7 -21 -76 0
3 -21 -73 0
9 -21 -67 0
7 -21 -63 0
10 -21 -42 0
1 -21 -26 0
5 -21 68 0
6 -21 73 0
3 -21 78 0
6 -20 -92 0
3 -20 -91 0
3 -20 -57 0
10 -20 -56 0
4 -20 -31 0
8 -20 27 0
3 -20 28 0
9 -20 69 0
8 -20 84 0
6 -20 88 0
3 -20 92 0
6 -20 99 0
5 -20 117 0
5 -20 118 0
8 -19 -115 0
1 -19 -112 0
5 -19 -86 0
6 -19 -80 0
10 -19 -35 0
10 -19 28 0
1 -19 51 0
9 -19 69 0
7 -19 81 0
3 -19 91 0
7 -19 96 0
4 -18 -85 0
3 -18 -78 0
8 -18 -61 0
9 -18 -47 0
8 -18 30 0
10 -18 117 0
5 -18 120 0
10 -17 -113 0
2 -17 -107 0
5 -17 -99 0
4 -17 -56 0
10 -17 -26 0
7 -17 -18 0
3 -17 27 0
8 -17 111 0
3 -17 120 0
4 -16 -84 0
4 -16 -45 0
7 -16 -26 0
9 -16 21 0
2 -16 38 0
7 -16 55 0
3 -16 71 0
7 -16 75 0
7 -16 88 0
3 -16 111 0
7 -16 112 0
6 -16 116 0
9 -15 -111 0
9 -15 -92 0
3 -15 -89 0
4 -15 -79 0
2 -15 -74 0
9 -15 -65 0
3 -15 -47 0
9 -15 -37 0
9 -15 -34 0
7 -15 17 0
9 -15 20 0
2 -15 21 0
1 -15 23 0
3 -15 50 0
1 -15 51 0
8 -15 56 0
5 -15 59 0
8 -15 61 0
10 -15 85 0
8 -15 95 0
2 -15 108 0
7 -15 116 0
7 -14 -120 0
3 -14 -103 0
4 -14 -92 0
9 -14 -73 0
9 -14 -42 0
10 -14 -19 0
2 -14 21 0
6 -14 29 0
5 -14 44 0
1 -14 54 0
5 -14 59 0
7 -14 75 0
4 -14 100 0
6 -14 114 0
6 -13 -68 0
5 -13 -55 0
6 -13 -54 0
6 -13 -43 0
2 -13 -37 0
4 -13 -33 0
7 -13 24 0
2 -13 35 0
6 -13 39 0
7 -13 72 0
9 -13 78 0
10 -13 84 0
5 -13 98 0
8 -13 115 0
8 -12 -110 0
7 -12 -108 0
5 -12 -104 0
4 -12 -42 0
9 -12 24 0
8 -12 58 0
3 -12 66 0
8 -12 103 0
7 -11 -120 0
4 -11 -100 0
4 -11 -92 0
3 -11 -48 0
4 -11 27 0
8 -11 103 0
9 -11 107 0
7 -11 111 0
4 -10 -100 0
5 -10 -97 0
2 -10 -94 0
9 -10 -76 0
1 -10 -70 0
3 -10 -68 0
3 -10 -57 0
7 -10 54 0
5 -10 58 0
8 -10 68 0
4 -10 96 0
4 -10 119 0
8 -9 -120 0
8 -9 -110 0
2 -9 -98 0
6 -9 -61 0
5 -9 -56 0
6 -9 12 0
9 -9 19 0
4 -9 57 0
4 -9 67 0
2 -9 78 0
2 -9 109 0
1 -9 118 0
5 -8 -104 0
5 -8 -103 0
3 -8 -100 0
8 -8 -96 0
3 -8 -85 0
2 -8 -62 0
5 -8 -29 0
7 -8 -18 0
6 -8 51 0
7 -8 92 0
6 -8 95 0
7 -8 97 0
9 -7 -111 0
8 -7 -67 0
3 -7 -17 0
4 -7 -8 0
6 -7 25 0
6 -7 52 0
7 -6 -91 0
5 -6 -76 0
4 -6 -51 0
8 -6 -14 0
9 -6 10 0
8 -6 21 0
4 -6 22 0
9 -6 51 0
3 -6 99 0
7 -5 -47 0
10 -5 -45 0
4 -5 -6 0
7 -5 35 0
5 -5 43 0
8 -5 45 0
9 -5 53 0
3 -5 73 0
10 -5 110 0
2 -5 114 0
7 -4 -114 0
6 -4 -71 0
7 -4 -51 0
4 -4 -49 0
2 -4 -13 0
4 -4 73 0
3 -4 101 0
9 -4 116 0
6 -4 120 0
6 -3 -49 0
5 -3 -47 0
2 -3 -23 0
3 -3 -16 0
9 -3 35 0
5 -3 37 0
10 -3 60 0
8 -2 -120 0
4 -2 -68 0
4 -2 -43 0
6 -2 -34 0
5 -2 -14 0
9 -2 9 0
6 -2 28 0
8 -2 47 0
7 -2 105 0
10 -2 114 0
6 -1 -120 0
6 -1 -95 0
3 -1 -92 0
6 -1 -50 0
7 -1 -34 0
9 -1 36 0
2 1 -111 0
4 1 -82 0
3 1 -64 0
3 1 -63 0
6 1 -58 0
5 1 -35 0
1 1 -23 0
2 1 -4 0
1 1 74 0
5 1 96 0
3 1 108 0
3 1 111 0
4 2 -108 0
7 2 -88 0
3 2 -80 0
2 2 -67 0
1 2 -65 0
5 2 -13 0
7 2 5 0
6 2 21 0
5 2 44 0
3 2 46 0
4 2 79 0
1 2 95 0
3 3 -118 0
8 3 -114 0
6 3 -113 0
5 3 -77 0
4 3 -59 0
3 3 -49 0
3 3 35 0
5 3 97 0
5 4 -94 0
5 4 -83 0
7 4 -78 0
2 4 -62 0
9 4 24 0
7 4 48 0
3 4 52 0
9 4 53 0
2 4 88 0
5 4 103 0
2 4 107 0
5 5 -90 0
2 5 -25 0
4 5 -15 0
6 5 -12 0
2 5 27 0
8 5 54 0
3 5 92 0
7 5 116 0
3 6 -114 0
5 6 -112 0
10 6 -57 0
3 6 -49 0
7 6 -39 0
8 6 -34 0
8 6 -25 0
2 6 -18 0
2 6 9 0
10 6 12 0
5 6 57 0
6 6 70 0
5 6 119 0
9 7 -120 0
2 7 -113 0
6 7 -72 0
8 7 -60 0
8 7 -31 0
7 7 -14 0
7 7 8 0
9 7 42 0
2 7 115 0
9 8 -84 0
4 8 -41 0
3 8 25 0
2 8 41 0
9 8 113 0
4 8 119 0
9 9 -104 0
2 9 -72 0
1 9 -64 0
2 9 -58 0
6 9 -32 0
10 9 25 0
4 9 28 0
4 9 29 0
8 9 39 0
2 9 43 0
5 9 64 0
9 9 97 0
1 10 -116 0
8 10 -80 0
5 10 -69 0
6 10 -65 0
7 10 -44 0
6 10 34 0
1 10 47 0
5 10 73 0
5 10 80 0
8 10 103 0
3 11 -116 0
4 11 -106 0
9 11 -94 0
1 11 -88 0
7 11 -87 0
2 11 -49 0
3 11 -32 0
6 11 -31 0
5 11 -14 0
2 11 22 0
7 11 55 0
6 11 56 0
3 11 104 0
4 11 115 0
5 12 -80 0
6 12 -74 0
7 12 -69 0
3 12 30 0
6 12 43 0
1 12 59 0
2 12 71 0
7 12 87 0
9 12 101 0
6 12 105 0
3 12 107 0
6 13 -66 0
3 13 -64 0
3 13 -32 0
1 13 40 0
6 13 52 0
10 13 92 0
3 14 -117 0
9 14 -116 0
9 14 -94 0
3 14 -87 0
6 14 -35 0
10 14 -33 0
5 14 -28 0
3 14 74 0
5 15 -96 0
6 15 -38 0
9 15 -20 0
9 15 16 0
8 15 19 0
3 15 56 0
5 15 66 0
4 15 99 0
8 15 104 0
7 15 108 0
9 16 -111 0
9 16 -101 0
8 16 -61 0
6 16 -60 0
7 16 -43 0
4 16 -35 0
8 16 -17 0
3 16 66 0
6 16 71 0
10 16 86 0
4 16 95 0
2 17 -120 0
10 17 -108 0
5 17 -106 0
1 17 -85 0
9 17 -35 0
8 17 51 0
6 17 63 0
8 17 93 0
2 18 -120 0
8 18 -89 0
3 18 -82 0
7 18 -60 0
7 18 -27 0
3 18 21 0
5 18 38 0
9 18 58 0
7 18 62 0
8 18 72 0
7 18 85 0
4 18 89 0
7 19 -101 0
5 19 -82 0
2 19 -72 0
4 19 -41 0
3 19 -32 0
6 19 27 0
1 19 52 0
5 19 74 0
2 19 78 0
1 19 84 0
7 19 114 0
3 20 -95 0
1 20 -80 0
3 20 -39 0
3 20 21 0
9 20 23 0
9 20 27 0
8 20 28 0
7 20 52 0
2 20 69 0
6 20 95 0
10 21 -114 0
8 21 -113 0
3 21 -62 0
2 21 -26 0
4 21 77 0
2 21 86 0
8 21 95 0
2 21 118 0
8 22 -54 0
2 22 -53 0
8 22 -35 0
3 22 -28 0
3 22 30 0
2 22 36 0
4 22 86 0
7 22 89 0
2 22 91 0
8 23 -120 0
8 23 -92 0
3 23 -74 0
6 23 -43 0
10 23 43 0
3 23 77 0
7 23 106 0
2 23 108 0
2 24 -95 0
7 24 -68 0
10 24 -28 0
8 24 65 0
8 25 -110 0
6 25 -66 0
7 25 -30 0
6 25 50 0
8 25 54 0
9 25 58 0
9 25 65 0
9 25 87 0
7 25 92 0
9 25 106 0
7 26 -108 0
7 26 -100 0
8 26 -79 0
9 26 -60 0
9 26 -59 0
8 26 -53 0
3 26 -47 0
7 26 43 0
10 27 46 0
10 27 71 0
4 27 76 0
2 27 101 0
6 27 108 0
4 27 118 0
4 27 120 0
3 28 -100 0
5 28 -91 0
4 28 -70 0
9 28 -66 0
5 28 32 0
2 28 59 0
7 28 98 0
1 28 102 0
8 28 117 0
3 29 -109 0
9 29 -98 0
7 29 -86 0
1 29 -47 0
8 29 102 0
4 29 105 0
10 30 -120 0
5 30 -102 0
1 30 -62 0
7 30 -49 0
4 30 40 0
9 30 47 0
6 30 66 0
6 30 80 0
6 30 89 0
5 30 114 0
6 31 -116 0
9 31 -66 0
6 31 -33 0
1 31 75 0
3 31 115 0
9 31 116 0
3 32 -77 0
8 32 -72 0
3 32 -46 0
2 32 -44 0
3 32 -37 0
4 32 46 0
8 32 73 0
3 33 -91 0
3 33 -86 0
10 33 -82 0
2 33 -39 0
9 33 49 0
1 33 61 0
10 33 70 0
3 33 72 0
1 33 102 0
5 34 -97 0
3 34 -54 0
8 34 68 0
7 34 97 0
2 34 118 0
3 35 -111 0
3 35 -58 0
7 35 45 0
7 35 86 0
8 35 96 0
6 35 106 0
4 36 -107 0
8 36 -106 0
9 36 -73 0
3 36 -39 0
1 36 49 0
7 36 82 0
5 36 96 0
2 37 -110 0
9 37 -108 0
8 37 -104 0
9 37 -88 0
2 37 -64 0
10 37 64 0
9 37 77 0
3 37 95 0
9 38 -87 0
10 38 -51 0
3 38 -49 0
1 38 -43 0
10 38 41 0
7 38 48 0
3 38 60 0
7 38 62 0
4 38 105 0
4 39 -120 0
10 39 -92 0
6 39 -78 0
1 39 -75 0
7 39 -74 0
4 39 -53 0
7 39 44 0
10 39 100 0
2 39 102 0
5 40 -113 0
2 40 -109 0
2 40 -100 0
2 40 -59 0
6 40 -44 0
3 40 -41 0
10 40 101 0
4 40 104 0
2 40 117 0
2 41 -112 0
4 41 -108 0
1 41 -54 0
4 41 -46 0
2 41 -43 0
1 41 87 0
6 41 108 0
3 41 111 0
10 41 120 0
3 42 -119 0
5 42 45 0
7 42 62 0
6 42 73 0
8 42 78 0
7 42 80 0
3 42 90 0
8 43 -83 0
4 43 -49 0
6 43 68 0
5 43 76 0
4 44 -104 0
7 44 -97 0
9 44 -81 0
5 44 -55 0
7 44 69 0
10 44 71 0
1 44 100 0
10 45 -118 0
9 45 -116 0
4 45 87 0
2 45 107 0
10 45 114 0
7 45 119 0
2 46 -107 0
4 46 -54 0
8 46 -49 0
2 46 64 0
9 46 71 0
1 46 82 0
2 46 88 0
2 46 93 0
5 46 100 0
9 46 111 0
8 46 112 0
3 46 119 0
5 47 -72 0
9 47 -60 0
10 47 83 0
9 47 86 0
5 47 89 0
4 48 -119 0
2 48 -112 0
1 48 69 0
3 48 72 0
6 49 -96 0
8 49 -69 0
3 49 -51 0
6 49 83 0
7 49 92 0
2 49 93 0
9 50 -107 0
8 50 -80 0
2 50 -62 0
6 50 95 0
10 50 99 0
5 50 103 0
5 50 112 0
2 51 -103 0
4 51 97 0
5 52 -112 0
4 52 -106 0
6 52 -81 0
8 52 -55 0
2 52 64 0
3 52 81 0
10 52 89 0
7 52 103 0
2 53 -109 0
9 53 -89 0
5 53 -85 0
6 53 -74 0
4 53 91 0
6 53 96 0
7 53 100 0
5 53 111 0
3 54 -116 0
4 54 -113 0
7 54 -110 0
8 54 -100 0
2 54 -86 0
8 54 65 0
7 54 71 0
9 54 87 0
8 55 -115 0
4 55 -74 0
9 55 58 0
3 55 63 0
7 55 69 0
1 56 -101 0
6 56 -60 0
2 56 61 0
4 56 71 0
2 56 75 0
9 56 99 0
5 56 105 0
4 56 113 0
9 56 115 0
2 56 120 0
5 57 -113 0
9 57 89 0
6 58 -112 0
1 58 -96 0
2 58 -78 0
2 58 60 0
7 58 72 0
7 59 -110 0
4 59 -80 0
1 59 80 0
4 60 -101 0
2 60 -85 0
2 61 -99 0
1 61 64 0
8 61 68 0
1 61 97 0
8 61 114 0
2 62 -119 0
9 62 -71 0
2 62 67 0
8 62 79 0
10 62 101 0
7 62 114 0
9 63 -111 0
4 63 -72 0
7 63 76 0
8 64 -88 0
8 64 -85 0
1 64 82 0
8 64 86 0
8 64 101 0
6 64 110 0
6 65 -119 0
4 65 -110 0
6 65 93 0
8 65 105 0
5 65 114 0
3 66 -109 0
4 66 -93 0
8 66 -92 0
3 66 -90 0
7 66 70 0
8 66 81 0
4 66 115 0
7 67 -75 0
6 67 81 0
5 67 120 0
5 68 -108 0
7 68 -101 0
4 68 112 0
6 69 83 0
5 69 90 0
4 69 99 0
3 70 -107 0
4 70 -101 0
7 70 -77 0
9 70 81 0
2 70 87 0
4 70 94 0
10 70 99 0
9 70 101 0
2 70 112 0
5 70 113 0
5 71 77 0
5 72 -103 0
10 72 -97 0
3 72 80 0
9 72 82 0
3 72 115 0
6 72 116 0
7 73 -109 0
5 73 -89 0
3 73 84 0
6 73 87 0
8 73 95 0
9 74 -95 0
2 74 -91 0
3 74 -81 0
4 74 115 0
8 75 -94 0
6 75 -91 0
9 75 -85 0
3 75 99 0
9 75 103 0
2 75 104 0
6 76 79 0
6 76 106 0
1 76 116 0
7 77 79 0
9 77 80 0
10 77 101 0
6 77 110 0
2 78 106 0
5 79 -95 0
1 79 85 0
6 79 106 0
5 80 -100 0
3 80 92 0
5 80 106 0
7 81 -119 0
8 81 -103 0
3 81 -84 0
1 81 101 0
1 82 -100 0
7 82 85 0
9 82 87 0
9 82 90 0
9 82 97 0
2 83 -94 0
4 83 108 0
7 84 -113 0
7 84 100 0
3 84 101 0
9 84 116 0
6 85 -106 0
4 85 -103 0
5 85 -93 0
2 85 -88 0
4 85 105 0
2 85 109 0
1 85 115 0
4 86 -115 0
8 86 -104 0
2 86 106 0
8 87 -113 0
8 87 -107 0
7 87 -97 0
3 87 91 0
1 87 98 0
2 88 98 0
9 88 113 0
9 88 118 0
4 89 98 0
9 90 -102 0
9 90 118 0
2 91 -117 0
8 91 -115 0
8 91 -105 0
9 91 -97 0
9 91 102 0
2 92 -105 0
6 92 96 0
6 92 115 0
4 93 -106 0
5 93 -103 0
2 93 95 0
7 94 103 0
9 94 106 0
3 95 -119 0
2 95 -115 0
2 95 -113 0
3 96 -112 0
5 96 97 0
8 96 107 0
4 96 116 0
4 97 -107 0
6 99 -112 0
10 99 110 0
6 99 112 0
6 102 -116 0
2 102 112 0
5 102 118 0
5 103 -108 0
6 103 104 0
4 103 114 0
4 104 -119 0
6 104 105 0
2 105 -113 0
2 108 -113 0
5 109 110 0
10 111 -120 0
3 111 -115 0
2 111 -113 0
6 111 113 0
6 111 115 0
